c Generated map
c Size: 10 * 10, weights in range: 1 to 10, walls: True, with ratio 0.1
c dim 4 of 6
c
p sp 100 145
c graph contains 100 nodes and 145 arcs
c
a 1 11 8
a 11 1 8
a 3 13 3
a 13 3 3
a 3 4 5
a 4 3 5
a 4 14 3
a 14 4 3
a 4 5 8
a 5 4 8
a 5 15 4
a 15 5 4
a 5 6 5
a 6 5 5
a 6 16 3
a 16 6 3
a 6 7 4
a 7 6 4
a 7 17 4
a 17 7 4
a 7 8 4
a 8 7 4
a 8 9 9
a 9 8 9
a 9 19 7
a 19 9 7
a 9 10 1
a 10 9 1
a 10 20 6
a 20 10 6
a 11 21 2
a 21 11 2
a 11 12 2
a 12 11 2
a 12 22 2
a 22 12 2
a 12 13 1
a 13 12 1
a 13 23 2
a 23 13 2
a 13 14 7
a 14 13 7
a 14 24 10
a 24 14 10
a 14 15 1
a 15 14 1
a 15 25 5
a 25 15 5
a 15 16 7
a 16 15 7
a 16 26 7
a 26 16 7
a 16 17 9
a 17 16 9
a 17 27 5
a 27 17 5
a 19 29 5
a 29 19 5
a 19 20 7
a 20 19 7
a 20 30 9
a 30 20 9
a 21 22 4
a 22 21 4
a 22 32 1
a 32 22 1
a 22 23 6
a 23 22 6
a 23 33 5
a 33 23 5
a 23 24 8
a 24 23 8
a 24 34 3
a 34 24 3
a 24 25 4
a 25 24 4
a 25 35 10
a 35 25 10
a 25 26 2
a 26 25 2
a 26 36 8
a 36 26 8
a 26 27 4
a 27 26 4
a 27 37 3
a 37 27 3
a 27 28 3
a 28 27 3
a 28 38 10
a 38 28 10
a 28 29 2
a 29 28 2
a 29 39 7
a 39 29 7
a 29 30 9
a 30 29 9
a 30 40 5
a 40 30 5
a 32 42 6
a 42 32 6
a 32 33 2
a 33 32 2
a 33 43 2
a 43 33 2
a 33 34 7
a 34 33 7
a 34 44 6
a 44 34 6
a 34 35 3
a 35 34 3
a 35 36 8
a 36 35 8
a 36 46 7
a 46 36 7
a 36 37 3
a 37 36 3
a 37 47 1
a 47 37 1
a 37 38 1
a 38 37 1
a 38 48 5
a 48 38 5
a 38 39 5
a 39 38 5
a 39 49 8
a 49 39 8
a 39 40 4
a 40 39 4
a 40 50 10
a 50 40 10
a 41 51 6
a 51 41 6
a 41 42 9
a 42 41 9
a 42 52 10
a 52 42 10
a 42 43 1
a 43 42 1
a 43 53 8
a 53 43 8
a 43 44 8
a 44 43 8
a 44 54 5
a 54 44 5
a 46 56 5
a 56 46 5
a 46 47 8
a 47 46 8
a 47 48 2
a 48 47 2
a 48 58 7
a 58 48 7
a 48 49 3
a 49 48 3
a 49 59 6
a 59 49 6
a 49 50 10
a 50 49 10
a 50 60 8
a 60 50 8
a 51 61 6
a 61 51 6
a 51 52 3
a 52 51 3
a 52 62 5
a 62 52 5
a 52 53 2
a 53 52 2
a 53 63 7
a 63 53 7
a 53 54 4
a 54 53 4
a 54 64 3
a 64 54 3
a 54 55 9
a 55 54 9
a 55 65 5
a 65 55 5
a 55 56 7
a 56 55 7
a 56 66 10
a 66 56 10
a 58 68 8
a 68 58 8
a 58 59 4
a 59 58 4
a 59 69 7
a 69 59 7
a 59 60 3
a 60 59 3
a 60 70 8
a 70 60 8
a 61 71 5
a 71 61 5
a 61 62 10
a 62 61 10
a 62 72 9
a 72 62 9
a 62 63 6
a 63 62 6
a 63 73 1
a 73 63 1
a 63 64 6
a 64 63 6
a 64 74 1
a 74 64 1
a 64 65 5
a 65 64 5
a 65 75 2
a 75 65 2
a 65 66 2
a 66 65 2
a 66 76 1
a 76 66 1
a 68 78 1
a 78 68 1
a 68 69 2
a 69 68 2
a 69 79 10
a 79 69 10
a 69 70 4
a 70 69 4
a 71 81 6
a 81 71 6
a 71 72 8
a 72 71 8
a 72 82 2
a 82 72 2
a 72 73 10
a 73 72 10
a 73 83 5
a 83 73 5
a 73 74 2
a 74 73 2
a 74 84 1
a 84 74 1
a 74 75 9
a 75 74 9
a 75 85 3
a 85 75 3
a 75 76 5
a 76 75 5
a 76 77 2
a 77 76 2
a 77 87 8
a 87 77 8
a 77 78 4
a 78 77 4
a 78 79 5
a 79 78 5
a 79 89 8
a 89 79 8
a 81 91 6
a 91 81 6
a 81 82 1
a 82 81 1
a 82 83 6
a 83 82 6
a 83 93 7
a 93 83 7
a 83 84 2
a 84 83 2
a 84 94 6
a 94 84 6
a 84 85 2
a 85 84 2
a 85 95 7
a 95 85 7
a 87 97 9
a 97 87 9
a 89 99 10
a 99 89 10
a 89 90 4
a 90 89 4
a 90 100 5
a 100 90 5
a 93 94 9
a 94 93 9
a 94 95 9
a 95 94 9
a 95 96 2
a 96 95 2
a 96 97 8
a 97 96 8
a 97 98 9
a 98 97 9
a 98 99 2
a 99 98 2
a 99 100 4
a 100 99 4
